(set-logic ALL)
(declare-const val String)
(assert (not (< (str.len val) 0)))
(assert (not (= (+ 0 (str.indexof val ":" 0)) (- 1))))
(assert (not (< (+ 0 (str.indexof val ":" 0)) 0)))
(assert (not (< (+ (+ 0 (str.indexof val ":" 0)) 1) 0)))
(assert (not (< (str.len val) 0)))
(assert (not (< (str.len (str.substr val (+ (+ 0 (str.indexof val ":" 0)) 1) (- (str.len val) (+ (+ 0 (str.indexof val ":" 0)) 1)))) 0)))
(assert (not (= (+ 0 (str.indexof (str.substr val (+ (+ 0 (str.indexof val ":" 0)) 1) (- (str.len val) (+ (+ 0 (str.indexof val ":" 0)) 1))) ":" 0)) (- 1))))
(assert (not (< (+ 0 (str.indexof (str.substr val (+ (+ 0 (str.indexof val ":" 0)) 1) (- (str.len val) (+ (+ 0 (str.indexof val ":" 0)) 1))) ":" 0)) 0)))
(assert (not (< (+ (+ 0 (str.indexof (str.substr val (+ (+ 0 (str.indexof val ":" 0)) 1) (- (str.len val) (+ (+ 0 (str.indexof val ":" 0)) 1))) ":" 0)) 1) 0)))
(assert (not (< (str.len (str.substr val (+ (+ 0 (str.indexof val ":" 0)) 1) (- (str.len val) (+ (+ 0 (str.indexof val ":" 0)) 1)))) 0)))
(assert (not (< (str.len (str.substr (str.substr val (+ (+ 0 (str.indexof val ":" 0)) 1) (- (str.len val) (+ (+ 0 (str.indexof val ":" 0)) 1))) (+ (+ 0 (str.indexof (str.substr val (+ (+ 0 (str.indexof val ":" 0)) 1) (- (str.len val) (+ (+ 0 (str.indexof val ":" 0)) 1))) ":" 0)) 1) (- (str.len (str.substr val (+ (+ 0 (str.indexof val ":" 0)) 1) (- (str.len val) (+ (+ 0 (str.indexof val ":" 0)) 1)))) (+ (+ 0 (str.indexof (str.substr val (+ (+ 0 (str.indexof val ":" 0)) 1) (- (str.len val) (+ (+ 0 (str.indexof val ":" 0)) 1))) ":" 0)) 1)))) 0)))
(assert (not (= (+ 0 (str.indexof (str.substr (str.substr val (+ (+ 0 (str.indexof val ":" 0)) 1) (- (str.len val) (+ (+ 0 (str.indexof val ":" 0)) 1))) (+ (+ 0 (str.indexof (str.substr val (+ (+ 0 (str.indexof val ":" 0)) 1) (- (str.len val) (+ (+ 0 (str.indexof val ":" 0)) 1))) ":" 0)) 1) (- (str.len (str.substr val (+ (+ 0 (str.indexof val ":" 0)) 1) (- (str.len val) (+ (+ 0 (str.indexof val ":" 0)) 1)))) (+ (+ 0 (str.indexof (str.substr val (+ (+ 0 (str.indexof val ":" 0)) 1) (- (str.len val) (+ (+ 0 (str.indexof val ":" 0)) 1))) ":" 0)) 1))) ":" 0)) (- 1))))
(assert (not (< (+ 0 (str.indexof (str.substr (str.substr val (+ (+ 0 (str.indexof val ":" 0)) 1) (- (str.len val) (+ (+ 0 (str.indexof val ":" 0)) 1))) (+ (+ 0 (str.indexof (str.substr val (+ (+ 0 (str.indexof val ":" 0)) 1) (- (str.len val) (+ (+ 0 (str.indexof val ":" 0)) 1))) ":" 0)) 1) (- (str.len (str.substr val (+ (+ 0 (str.indexof val ":" 0)) 1) (- (str.len val) (+ (+ 0 (str.indexof val ":" 0)) 1)))) (+ (+ 0 (str.indexof (str.substr val (+ (+ 0 (str.indexof val ":" 0)) 1) (- (str.len val) (+ (+ 0 (str.indexof val ":" 0)) 1))) ":" 0)) 1))) ":" 0)) 0)))
(assert (not (< (+ (+ 0 (str.indexof (str.substr (str.substr val (+ (+ 0 (str.indexof val ":" 0)) 1) (- (str.len val) (+ (+ 0 (str.indexof val ":" 0)) 1))) (+ (+ 0 (str.indexof (str.substr val (+ (+ 0 (str.indexof val ":" 0)) 1) (- (str.len val) (+ (+ 0 (str.indexof val ":" 0)) 1))) ":" 0)) 1) (- (str.len (str.substr val (+ (+ 0 (str.indexof val ":" 0)) 1) (- (str.len val) (+ (+ 0 (str.indexof val ":" 0)) 1)))) (+ (+ 0 (str.indexof (str.substr val (+ (+ 0 (str.indexof val ":" 0)) 1) (- (str.len val) (+ (+ 0 (str.indexof val ":" 0)) 1))) ":" 0)) 1))) ":" 0)) 1) 0)))
(assert (not (< (str.len (str.substr (str.substr val (+ (+ 0 (str.indexof val ":" 0)) 1) (- (str.len val) (+ (+ 0 (str.indexof val ":" 0)) 1))) (+ (+ 0 (str.indexof (str.substr val (+ (+ 0 (str.indexof val ":" 0)) 1) (- (str.len val) (+ (+ 0 (str.indexof val ":" 0)) 1))) ":" 0)) 1) (- (str.len (str.substr val (+ (+ 0 (str.indexof val ":" 0)) 1) (- (str.len val) (+ (+ 0 (str.indexof val ":" 0)) 1)))) (+ (+ 0 (str.indexof (str.substr val (+ (+ 0 (str.indexof val ":" 0)) 1) (- (str.len val) (+ (+ 0 (str.indexof val ":" 0)) 1))) ":" 0)) 1)))) 0)))
(assert (not (< (str.len (str.substr (str.substr (str.substr val (+ (+ 0 (str.indexof val ":" 0)) 1) (- (str.len val) (+ (+ 0 (str.indexof val ":" 0)) 1))) (+ (+ 0 (str.indexof (str.substr val (+ (+ 0 (str.indexof val ":" 0)) 1) (- (str.len val) (+ (+ 0 (str.indexof val ":" 0)) 1))) ":" 0)) 1) (- (str.len (str.substr val (+ (+ 0 (str.indexof val ":" 0)) 1) (- (str.len val) (+ (+ 0 (str.indexof val ":" 0)) 1)))) (+ (+ 0 (str.indexof (str.substr val (+ (+ 0 (str.indexof val ":" 0)) 1) (- (str.len val) (+ (+ 0 (str.indexof val ":" 0)) 1))) ":" 0)) 1))) (+ (+ 0 (str.indexof (str.substr (str.substr val (+ (+ 0 (str.indexof val ":" 0)) 1) (- (str.len val) (+ (+ 0 (str.indexof val ":" 0)) 1))) (+ (+ 0 (str.indexof (str.substr val (+ (+ 0 (str.indexof val ":" 0)) 1) (- (str.len val) (+ (+ 0 (str.indexof val ":" 0)) 1))) ":" 0)) 1) (- (str.len (str.substr val (+ (+ 0 (str.indexof val ":" 0)) 1) (- (str.len val) (+ (+ 0 (str.indexof val ":" 0)) 1)))) (+ (+ 0 (str.indexof (str.substr val (+ (+ 0 (str.indexof val ":" 0)) 1) (- (str.len val) (+ (+ 0 (str.indexof val ":" 0)) 1))) ":" 0)) 1))) ":" 0)) 1) (- (str.len (str.substr (str.substr val (+ (+ 0 (str.indexof val ":" 0)) 1) (- (str.len val) (+ (+ 0 (str.indexof val ":" 0)) 1))) (+ (+ 0 (str.indexof (str.substr val (+ (+ 0 (str.indexof val ":" 0)) 1) (- (str.len val) (+ (+ 0 (str.indexof val ":" 0)) 1))) ":" 0)) 1) (- (str.len (str.substr val (+ (+ 0 (str.indexof val ":" 0)) 1) (- (str.len val) (+ (+ 0 (str.indexof val ":" 0)) 1)))) (+ (+ 0 (str.indexof (str.substr val (+ (+ 0 (str.indexof val ":" 0)) 1) (- (str.len val) (+ (+ 0 (str.indexof val ":" 0)) 1))) ":" 0)) 1)))) (+ (+ 0 (str.indexof (str.substr (str.substr val (+ (+ 0 (str.indexof val ":" 0)) 1) (- (str.len val) (+ (+ 0 (str.indexof val ":" 0)) 1))) (+ (+ 0 (str.indexof (str.substr val (+ (+ 0 (str.indexof val ":" 0)) 1) (- (str.len val) (+ (+ 0 (str.indexof val ":" 0)) 1))) ":" 0)) 1) (- (str.len (str.substr val (+ (+ 0 (str.indexof val ":" 0)) 1) (- (str.len val) (+ (+ 0 (str.indexof val ":" 0)) 1)))) (+ (+ 0 (str.indexof (str.substr val (+ (+ 0 (str.indexof val ":" 0)) 1) (- (str.len val) (+ (+ 0 (str.indexof val ":" 0)) 1))) ":" 0)) 1))) ":" 0)) 1)))) 0)))
(assert (not (= (+ 0 (str.indexof (str.substr (str.substr (str.substr val (+ (+ 0 (str.indexof val ":" 0)) 1) (- (str.len val) (+ (+ 0 (str.indexof val ":" 0)) 1))) (+ (+ 0 (str.indexof (str.substr val (+ (+ 0 (str.indexof val ":" 0)) 1) (- (str.len val) (+ (+ 0 (str.indexof val ":" 0)) 1))) ":" 0)) 1) (- (str.len (str.substr val (+ (+ 0 (str.indexof val ":" 0)) 1) (- (str.len val) (+ (+ 0 (str.indexof val ":" 0)) 1)))) (+ (+ 0 (str.indexof (str.substr val (+ (+ 0 (str.indexof val ":" 0)) 1) (- (str.len val) (+ (+ 0 (str.indexof val ":" 0)) 1))) ":" 0)) 1))) (+ (+ 0 (str.indexof (str.substr (str.substr val (+ (+ 0 (str.indexof val ":" 0)) 1) (- (str.len val) (+ (+ 0 (str.indexof val ":" 0)) 1))) (+ (+ 0 (str.indexof (str.substr val (+ (+ 0 (str.indexof val ":" 0)) 1) (- (str.len val) (+ (+ 0 (str.indexof val ":" 0)) 1))) ":" 0)) 1) (- (str.len (str.substr val (+ (+ 0 (str.indexof val ":" 0)) 1) (- (str.len val) (+ (+ 0 (str.indexof val ":" 0)) 1)))) (+ (+ 0 (str.indexof (str.substr val (+ (+ 0 (str.indexof val ":" 0)) 1) (- (str.len val) (+ (+ 0 (str.indexof val ":" 0)) 1))) ":" 0)) 1))) ":" 0)) 1) (- (str.len (str.substr (str.substr val (+ (+ 0 (str.indexof val ":" 0)) 1) (- (str.len val) (+ (+ 0 (str.indexof val ":" 0)) 1))) (+ (+ 0 (str.indexof (str.substr val (+ (+ 0 (str.indexof val ":" 0)) 1) (- (str.len val) (+ (+ 0 (str.indexof val ":" 0)) 1))) ":" 0)) 1) (- (str.len (str.substr val (+ (+ 0 (str.indexof val ":" 0)) 1) (- (str.len val) (+ (+ 0 (str.indexof val ":" 0)) 1)))) (+ (+ 0 (str.indexof (str.substr val (+ (+ 0 (str.indexof val ":" 0)) 1) (- (str.len val) (+ (+ 0 (str.indexof val ":" 0)) 1))) ":" 0)) 1)))) (+ (+ 0 (str.indexof (str.substr (str.substr val (+ (+ 0 (str.indexof val ":" 0)) 1) (- (str.len val) (+ (+ 0 (str.indexof val ":" 0)) 1))) (+ (+ 0 (str.indexof (str.substr val (+ (+ 0 (str.indexof val ":" 0)) 1) (- (str.len val) (+ (+ 0 (str.indexof val ":" 0)) 1))) ":" 0)) 1) (- (str.len (str.substr val (+ (+ 0 (str.indexof val ":" 0)) 1) (- (str.len val) (+ (+ 0 (str.indexof val ":" 0)) 1)))) (+ (+ 0 (str.indexof (str.substr val (+ (+ 0 (str.indexof val ":" 0)) 1) (- (str.len val) (+ (+ 0 (str.indexof val ":" 0)) 1))) ":" 0)) 1))) ":" 0)) 1))) ":" 0)) (- 1))))
(assert (not (< (+ 0 (str.indexof (str.substr (str.substr (str.substr val (+ (+ 0 (str.indexof val ":" 0)) 1) (- (str.len val) (+ (+ 0 (str.indexof val ":" 0)) 1))) (+ (+ 0 (str.indexof (str.substr val (+ (+ 0 (str.indexof val ":" 0)) 1) (- (str.len val) (+ (+ 0 (str.indexof val ":" 0)) 1))) ":" 0)) 1) (- (str.len (str.substr val (+ (+ 0 (str.indexof val ":" 0)) 1) (- (str.len val) (+ (+ 0 (str.indexof val ":" 0)) 1)))) (+ (+ 0 (str.indexof (str.substr val (+ (+ 0 (str.indexof val ":" 0)) 1) (- (str.len val) (+ (+ 0 (str.indexof val ":" 0)) 1))) ":" 0)) 1))) (+ (+ 0 (str.indexof (str.substr (str.substr val (+ (+ 0 (str.indexof val ":" 0)) 1) (- (str.len val) (+ (+ 0 (str.indexof val ":" 0)) 1))) (+ (+ 0 (str.indexof (str.substr val (+ (+ 0 (str.indexof val ":" 0)) 1) (- (str.len val) (+ (+ 0 (str.indexof val ":" 0)) 1))) ":" 0)) 1) (- (str.len (str.substr val (+ (+ 0 (str.indexof val ":" 0)) 1) (- (str.len val) (+ (+ 0 (str.indexof val ":" 0)) 1)))) (+ (+ 0 (str.indexof (str.substr val (+ (+ 0 (str.indexof val ":" 0)) 1) (- (str.len val) (+ (+ 0 (str.indexof val ":" 0)) 1))) ":" 0)) 1))) ":" 0)) 1) (- (str.len (str.substr (str.substr val (+ (+ 0 (str.indexof val ":" 0)) 1) (- (str.len val) (+ (+ 0 (str.indexof val ":" 0)) 1))) (+ (+ 0 (str.indexof (str.substr val (+ (+ 0 (str.indexof val ":" 0)) 1) (- (str.len val) (+ (+ 0 (str.indexof val ":" 0)) 1))) ":" 0)) 1) (- (str.len (str.substr val (+ (+ 0 (str.indexof val ":" 0)) 1) (- (str.len val) (+ (+ 0 (str.indexof val ":" 0)) 1)))) (+ (+ 0 (str.indexof (str.substr val (+ (+ 0 (str.indexof val ":" 0)) 1) (- (str.len val) (+ (+ 0 (str.indexof val ":" 0)) 1))) ":" 0)) 1)))) (+ (+ 0 (str.indexof (str.substr (str.substr val (+ (+ 0 (str.indexof val ":" 0)) 1) (- (str.len val) (+ (+ 0 (str.indexof val ":" 0)) 1))) (+ (+ 0 (str.indexof (str.substr val (+ (+ 0 (str.indexof val ":" 0)) 1) (- (str.len val) (+ (+ 0 (str.indexof val ":" 0)) 1))) ":" 0)) 1) (- (str.len (str.substr val (+ (+ 0 (str.indexof val ":" 0)) 1) (- (str.len val) (+ (+ 0 (str.indexof val ":" 0)) 1)))) (+ (+ 0 (str.indexof (str.substr val (+ (+ 0 (str.indexof val ":" 0)) 1) (- (str.len val) (+ (+ 0 (str.indexof val ":" 0)) 1))) ":" 0)) 1))) ":" 0)) 1))) ":" 0)) 0)))
(assert (not (< (+ (+ 0 (str.indexof (str.substr (str.substr (str.substr val (+ (+ 0 (str.indexof val ":" 0)) 1) (- (str.len val) (+ (+ 0 (str.indexof val ":" 0)) 1))) (+ (+ 0 (str.indexof (str.substr val (+ (+ 0 (str.indexof val ":" 0)) 1) (- (str.len val) (+ (+ 0 (str.indexof val ":" 0)) 1))) ":" 0)) 1) (- (str.len (str.substr val (+ (+ 0 (str.indexof val ":" 0)) 1) (- (str.len val) (+ (+ 0 (str.indexof val ":" 0)) 1)))) (+ (+ 0 (str.indexof (str.substr val (+ (+ 0 (str.indexof val ":" 0)) 1) (- (str.len val) (+ (+ 0 (str.indexof val ":" 0)) 1))) ":" 0)) 1))) (+ (+ 0 (str.indexof (str.substr (str.substr val (+ (+ 0 (str.indexof val ":" 0)) 1) (- (str.len val) (+ (+ 0 (str.indexof val ":" 0)) 1))) (+ (+ 0 (str.indexof (str.substr val (+ (+ 0 (str.indexof val ":" 0)) 1) (- (str.len val) (+ (+ 0 (str.indexof val ":" 0)) 1))) ":" 0)) 1) (- (str.len (str.substr val (+ (+ 0 (str.indexof val ":" 0)) 1) (- (str.len val) (+ (+ 0 (str.indexof val ":" 0)) 1)))) (+ (+ 0 (str.indexof (str.substr val (+ (+ 0 (str.indexof val ":" 0)) 1) (- (str.len val) (+ (+ 0 (str.indexof val ":" 0)) 1))) ":" 0)) 1))) ":" 0)) 1) (- (str.len (str.substr (str.substr val (+ (+ 0 (str.indexof val ":" 0)) 1) (- (str.len val) (+ (+ 0 (str.indexof val ":" 0)) 1))) (+ (+ 0 (str.indexof (str.substr val (+ (+ 0 (str.indexof val ":" 0)) 1) (- (str.len val) (+ (+ 0 (str.indexof val ":" 0)) 1))) ":" 0)) 1) (- (str.len (str.substr val (+ (+ 0 (str.indexof val ":" 0)) 1) (- (str.len val) (+ (+ 0 (str.indexof val ":" 0)) 1)))) (+ (+ 0 (str.indexof (str.substr val (+ (+ 0 (str.indexof val ":" 0)) 1) (- (str.len val) (+ (+ 0 (str.indexof val ":" 0)) 1))) ":" 0)) 1)))) (+ (+ 0 (str.indexof (str.substr (str.substr val (+ (+ 0 (str.indexof val ":" 0)) 1) (- (str.len val) (+ (+ 0 (str.indexof val ":" 0)) 1))) (+ (+ 0 (str.indexof (str.substr val (+ (+ 0 (str.indexof val ":" 0)) 1) (- (str.len val) (+ (+ 0 (str.indexof val ":" 0)) 1))) ":" 0)) 1) (- (str.len (str.substr val (+ (+ 0 (str.indexof val ":" 0)) 1) (- (str.len val) (+ (+ 0 (str.indexof val ":" 0)) 1)))) (+ (+ 0 (str.indexof (str.substr val (+ (+ 0 (str.indexof val ":" 0)) 1) (- (str.len val) (+ (+ 0 (str.indexof val ":" 0)) 1))) ":" 0)) 1))) ":" 0)) 1))) ":" 0)) 1) 0)))
(assert (not (< (str.len (str.substr (str.substr (str.substr val (+ (+ 0 (str.indexof val ":" 0)) 1) (- (str.len val) (+ (+ 0 (str.indexof val ":" 0)) 1))) (+ (+ 0 (str.indexof (str.substr val (+ (+ 0 (str.indexof val ":" 0)) 1) (- (str.len val) (+ (+ 0 (str.indexof val ":" 0)) 1))) ":" 0)) 1) (- (str.len (str.substr val (+ (+ 0 (str.indexof val ":" 0)) 1) (- (str.len val) (+ (+ 0 (str.indexof val ":" 0)) 1)))) (+ (+ 0 (str.indexof (str.substr val (+ (+ 0 (str.indexof val ":" 0)) 1) (- (str.len val) (+ (+ 0 (str.indexof val ":" 0)) 1))) ":" 0)) 1))) (+ (+ 0 (str.indexof (str.substr (str.substr val (+ (+ 0 (str.indexof val ":" 0)) 1) (- (str.len val) (+ (+ 0 (str.indexof val ":" 0)) 1))) (+ (+ 0 (str.indexof (str.substr val (+ (+ 0 (str.indexof val ":" 0)) 1) (- (str.len val) (+ (+ 0 (str.indexof val ":" 0)) 1))) ":" 0)) 1) (- (str.len (str.substr val (+ (+ 0 (str.indexof val ":" 0)) 1) (- (str.len val) (+ (+ 0 (str.indexof val ":" 0)) 1)))) (+ (+ 0 (str.indexof (str.substr val (+ (+ 0 (str.indexof val ":" 0)) 1) (- (str.len val) (+ (+ 0 (str.indexof val ":" 0)) 1))) ":" 0)) 1))) ":" 0)) 1) (- (str.len (str.substr (str.substr val (+ (+ 0 (str.indexof val ":" 0)) 1) (- (str.len val) (+ (+ 0 (str.indexof val ":" 0)) 1))) (+ (+ 0 (str.indexof (str.substr val (+ (+ 0 (str.indexof val ":" 0)) 1) (- (str.len val) (+ (+ 0 (str.indexof val ":" 0)) 1))) ":" 0)) 1) (- (str.len (str.substr val (+ (+ 0 (str.indexof val ":" 0)) 1) (- (str.len val) (+ (+ 0 (str.indexof val ":" 0)) 1)))) (+ (+ 0 (str.indexof (str.substr val (+ (+ 0 (str.indexof val ":" 0)) 1) (- (str.len val) (+ (+ 0 (str.indexof val ":" 0)) 1))) ":" 0)) 1)))) (+ (+ 0 (str.indexof (str.substr (str.substr val (+ (+ 0 (str.indexof val ":" 0)) 1) (- (str.len val) (+ (+ 0 (str.indexof val ":" 0)) 1))) (+ (+ 0 (str.indexof (str.substr val (+ (+ 0 (str.indexof val ":" 0)) 1) (- (str.len val) (+ (+ 0 (str.indexof val ":" 0)) 1))) ":" 0)) 1) (- (str.len (str.substr val (+ (+ 0 (str.indexof val ":" 0)) 1) (- (str.len val) (+ (+ 0 (str.indexof val ":" 0)) 1)))) (+ (+ 0 (str.indexof (str.substr val (+ (+ 0 (str.indexof val ":" 0)) 1) (- (str.len val) (+ (+ 0 (str.indexof val ":" 0)) 1))) ":" 0)) 1))) ":" 0)) 1)))) 0)))
(assert (not (< (str.len (str.substr (str.substr (str.substr (str.substr val (+ (+ 0 (str.indexof val ":" 0)) 1) (- (str.len val) (+ (+ 0 (str.indexof val ":" 0)) 1))) (+ (+ 0 (str.indexof (str.substr val (+ (+ 0 (str.indexof val ":" 0)) 1) (- (str.len val) (+ (+ 0 (str.indexof val ":" 0)) 1))) ":" 0)) 1) (- (str.len (str.substr val (+ (+ 0 (str.indexof val ":" 0)) 1) (- (str.len val) (+ (+ 0 (str.indexof val ":" 0)) 1)))) (+ (+ 0 (str.indexof (str.substr val (+ (+ 0 (str.indexof val ":" 0)) 1) (- (str.len val) (+ (+ 0 (str.indexof val ":" 0)) 1))) ":" 0)) 1))) (+ (+ 0 (str.indexof (str.substr (str.substr val (+ (+ 0 (str.indexof val ":" 0)) 1) (- (str.len val) (+ (+ 0 (str.indexof val ":" 0)) 1))) (+ (+ 0 (str.indexof (str.substr val (+ (+ 0 (str.indexof val ":" 0)) 1) (- (str.len val) (+ (+ 0 (str.indexof val ":" 0)) 1))) ":" 0)) 1) (- (str.len (str.substr val (+ (+ 0 (str.indexof val ":" 0)) 1) (- (str.len val) (+ (+ 0 (str.indexof val ":" 0)) 1)))) (+ (+ 0 (str.indexof (str.substr val (+ (+ 0 (str.indexof val ":" 0)) 1) (- (str.len val) (+ (+ 0 (str.indexof val ":" 0)) 1))) ":" 0)) 1))) ":" 0)) 1) (- (str.len (str.substr (str.substr val (+ (+ 0 (str.indexof val ":" 0)) 1) (- (str.len val) (+ (+ 0 (str.indexof val ":" 0)) 1))) (+ (+ 0 (str.indexof (str.substr val (+ (+ 0 (str.indexof val ":" 0)) 1) (- (str.len val) (+ (+ 0 (str.indexof val ":" 0)) 1))) ":" 0)) 1) (- (str.len (str.substr val (+ (+ 0 (str.indexof val ":" 0)) 1) (- (str.len val) (+ (+ 0 (str.indexof val ":" 0)) 1)))) (+ (+ 0 (str.indexof (str.substr val (+ (+ 0 (str.indexof val ":" 0)) 1) (- (str.len val) (+ (+ 0 (str.indexof val ":" 0)) 1))) ":" 0)) 1)))) (+ (+ 0 (str.indexof (str.substr (str.substr val (+ (+ 0 (str.indexof val ":" 0)) 1) (- (str.len val) (+ (+ 0 (str.indexof val ":" 0)) 1))) (+ (+ 0 (str.indexof (str.substr val (+ (+ 0 (str.indexof val ":" 0)) 1) (- (str.len val) (+ (+ 0 (str.indexof val ":" 0)) 1))) ":" 0)) 1) (- (str.len (str.substr val (+ (+ 0 (str.indexof val ":" 0)) 1) (- (str.len val) (+ (+ 0 (str.indexof val ":" 0)) 1)))) (+ (+ 0 (str.indexof (str.substr val (+ (+ 0 (str.indexof val ":" 0)) 1) (- (str.len val) (+ (+ 0 (str.indexof val ":" 0)) 1))) ":" 0)) 1))) ":" 0)) 1))) (+ (+ 0 (str.indexof (str.substr (str.substr (str.substr val (+ (+ 0 (str.indexof val ":" 0)) 1) (- (str.len val) (+ (+ 0 (str.indexof val ":" 0)) 1))) (+ (+ 0 (str.indexof (str.substr val (+ (+ 0 (str.indexof val ":" 0)) 1) (- (str.len val) (+ (+ 0 (str.indexof val ":" 0)) 1))) ":" 0)) 1) (- (str.len (str.substr val (+ (+ 0 (str.indexof val ":" 0)) 1) (- (str.len val) (+ (+ 0 (str.indexof val ":" 0)) 1)))) (+ (+ 0 (str.indexof (str.substr val (+ (+ 0 (str.indexof val ":" 0)) 1) (- (str.len val) (+ (+ 0 (str.indexof val ":" 0)) 1))) ":" 0)) 1))) (+ (+ 0 (str.indexof (str.substr (str.substr val (+ (+ 0 (str.indexof val ":" 0)) 1) (- (str.len val) (+ (+ 0 (str.indexof val ":" 0)) 1))) (+ (+ 0 (str.indexof (str.substr val (+ (+ 0 (str.indexof val ":" 0)) 1) (- (str.len val) (+ (+ 0 (str.indexof val ":" 0)) 1))) ":" 0)) 1) (- (str.len (str.substr val (+ (+ 0 (str.indexof val ":" 0)) 1) (- (str.len val) (+ (+ 0 (str.indexof val ":" 0)) 1)))) (+ (+ 0 (str.indexof (str.substr val (+ (+ 0 (str.indexof val ":" 0)) 1) (- (str.len val) (+ (+ 0 (str.indexof val ":" 0)) 1))) ":" 0)) 1))) ":" 0)) 1) (- (str.len (str.substr (str.substr val (+ (+ 0 (str.indexof val ":" 0)) 1) (- (str.len val) (+ (+ 0 (str.indexof val ":" 0)) 1))) (+ (+ 0 (str.indexof (str.substr val (+ (+ 0 (str.indexof val ":" 0)) 1) (- (str.len val) (+ (+ 0 (str.indexof val ":" 0)) 1))) ":" 0)) 1) (- (str.len (str.substr val (+ (+ 0 (str.indexof val ":" 0)) 1) (- (str.len val) (+ (+ 0 (str.indexof val ":" 0)) 1)))) (+ (+ 0 (str.indexof (str.substr val (+ (+ 0 (str.indexof val ":" 0)) 1) (- (str.len val) (+ (+ 0 (str.indexof val ":" 0)) 1))) ":" 0)) 1)))) (+ (+ 0 (str.indexof (str.substr (str.substr val (+ (+ 0 (str.indexof val ":" 0)) 1) (- (str.len val) (+ (+ 0 (str.indexof val ":" 0)) 1))) (+ (+ 0 (str.indexof (str.substr val (+ (+ 0 (str.indexof val ":" 0)) 1) (- (str.len val) (+ (+ 0 (str.indexof val ":" 0)) 1))) ":" 0)) 1) (- (str.len (str.substr val (+ (+ 0 (str.indexof val ":" 0)) 1) (- (str.len val) (+ (+ 0 (str.indexof val ":" 0)) 1)))) (+ (+ 0 (str.indexof (str.substr val (+ (+ 0 (str.indexof val ":" 0)) 1) (- (str.len val) (+ (+ 0 (str.indexof val ":" 0)) 1))) ":" 0)) 1))) ":" 0)) 1))) ":" 0)) 1) (- (str.len (str.substr (str.substr (str.substr val (+ (+ 0 (str.indexof val ":" 0)) 1) (- (str.len val) (+ (+ 0 (str.indexof val ":" 0)) 1))) (+ (+ 0 (str.indexof (str.substr val (+ (+ 0 (str.indexof val ":" 0)) 1) (- (str.len val) (+ (+ 0 (str.indexof val ":" 0)) 1))) ":" 0)) 1) (- (str.len (str.substr val (+ (+ 0 (str.indexof val ":" 0)) 1) (- (str.len val) (+ (+ 0 (str.indexof val ":" 0)) 1)))) (+ (+ 0 (str.indexof (str.substr val (+ (+ 0 (str.indexof val ":" 0)) 1) (- (str.len val) (+ (+ 0 (str.indexof val ":" 0)) 1))) ":" 0)) 1))) (+ (+ 0 (str.indexof (str.substr (str.substr val (+ (+ 0 (str.indexof val ":" 0)) 1) (- (str.len val) (+ (+ 0 (str.indexof val ":" 0)) 1))) (+ (+ 0 (str.indexof (str.substr val (+ (+ 0 (str.indexof val ":" 0)) 1) (- (str.len val) (+ (+ 0 (str.indexof val ":" 0)) 1))) ":" 0)) 1) (- (str.len (str.substr val (+ (+ 0 (str.indexof val ":" 0)) 1) (- (str.len val) (+ (+ 0 (str.indexof val ":" 0)) 1)))) (+ (+ 0 (str.indexof (str.substr val (+ (+ 0 (str.indexof val ":" 0)) 1) (- (str.len val) (+ (+ 0 (str.indexof val ":" 0)) 1))) ":" 0)) 1))) ":" 0)) 1) (- (str.len (str.substr (str.substr val (+ (+ 0 (str.indexof val ":" 0)) 1) (- (str.len val) (+ (+ 0 (str.indexof val ":" 0)) 1))) (+ (+ 0 (str.indexof (str.substr val (+ (+ 0 (str.indexof val ":" 0)) 1) (- (str.len val) (+ (+ 0 (str.indexof val ":" 0)) 1))) ":" 0)) 1) (- (str.len (str.substr val (+ (+ 0 (str.indexof val ":" 0)) 1) (- (str.len val) (+ (+ 0 (str.indexof val ":" 0)) 1)))) (+ (+ 0 (str.indexof (str.substr val (+ (+ 0 (str.indexof val ":" 0)) 1) (- (str.len val) (+ (+ 0 (str.indexof val ":" 0)) 1))) ":" 0)) 1)))) (+ (+ 0 (str.indexof (str.substr (str.substr val (+ (+ 0 (str.indexof val ":" 0)) 1) (- (str.len val) (+ (+ 0 (str.indexof val ":" 0)) 1))) (+ (+ 0 (str.indexof (str.substr val (+ (+ 0 (str.indexof val ":" 0)) 1) (- (str.len val) (+ (+ 0 (str.indexof val ":" 0)) 1))) ":" 0)) 1) (- (str.len (str.substr val (+ (+ 0 (str.indexof val ":" 0)) 1) (- (str.len val) (+ (+ 0 (str.indexof val ":" 0)) 1)))) (+ (+ 0 (str.indexof (str.substr val (+ (+ 0 (str.indexof val ":" 0)) 1) (- (str.len val) (+ (+ 0 (str.indexof val ":" 0)) 1))) ":" 0)) 1))) ":" 0)) 1)))) (+ (+ 0 (str.indexof (str.substr (str.substr (str.substr val (+ (+ 0 (str.indexof val ":" 0)) 1) (- (str.len val) (+ (+ 0 (str.indexof val ":" 0)) 1))) (+ (+ 0 (str.indexof (str.substr val (+ (+ 0 (str.indexof val ":" 0)) 1) (- (str.len val) (+ (+ 0 (str.indexof val ":" 0)) 1))) ":" 0)) 1) (- (str.len (str.substr val (+ (+ 0 (str.indexof val ":" 0)) 1) (- (str.len val) (+ (+ 0 (str.indexof val ":" 0)) 1)))) (+ (+ 0 (str.indexof (str.substr val (+ (+ 0 (str.indexof val ":" 0)) 1) (- (str.len val) (+ (+ 0 (str.indexof val ":" 0)) 1))) ":" 0)) 1))) (+ (+ 0 (str.indexof (str.substr (str.substr val (+ (+ 0 (str.indexof val ":" 0)) 1) (- (str.len val) (+ (+ 0 (str.indexof val ":" 0)) 1))) (+ (+ 0 (str.indexof (str.substr val (+ (+ 0 (str.indexof val ":" 0)) 1) (- (str.len val) (+ (+ 0 (str.indexof val ":" 0)) 1))) ":" 0)) 1) (- (str.len (str.substr val (+ (+ 0 (str.indexof val ":" 0)) 1) (- (str.len val) (+ (+ 0 (str.indexof val ":" 0)) 1)))) (+ (+ 0 (str.indexof (str.substr val (+ (+ 0 (str.indexof val ":" 0)) 1) (- (str.len val) (+ (+ 0 (str.indexof val ":" 0)) 1))) ":" 0)) 1))) ":" 0)) 1) (- (str.len (str.substr (str.substr val (+ (+ 0 (str.indexof val ":" 0)) 1) (- (str.len val) (+ (+ 0 (str.indexof val ":" 0)) 1))) (+ (+ 0 (str.indexof (str.substr val (+ (+ 0 (str.indexof val ":" 0)) 1) (- (str.len val) (+ (+ 0 (str.indexof val ":" 0)) 1))) ":" 0)) 1) (- (str.len (str.substr val (+ (+ 0 (str.indexof val ":" 0)) 1) (- (str.len val) (+ (+ 0 (str.indexof val ":" 0)) 1)))) (+ (+ 0 (str.indexof (str.substr val (+ (+ 0 (str.indexof val ":" 0)) 1) (- (str.len val) (+ (+ 0 (str.indexof val ":" 0)) 1))) ":" 0)) 1)))) (+ (+ 0 (str.indexof (str.substr (str.substr val (+ (+ 0 (str.indexof val ":" 0)) 1) (- (str.len val) (+ (+ 0 (str.indexof val ":" 0)) 1))) (+ (+ 0 (str.indexof (str.substr val (+ (+ 0 (str.indexof val ":" 0)) 1) (- (str.len val) (+ (+ 0 (str.indexof val ":" 0)) 1))) ":" 0)) 1) (- (str.len (str.substr val (+ (+ 0 (str.indexof val ":" 0)) 1) (- (str.len val) (+ (+ 0 (str.indexof val ":" 0)) 1)))) (+ (+ 0 (str.indexof (str.substr val (+ (+ 0 (str.indexof val ":" 0)) 1) (- (str.len val) (+ (+ 0 (str.indexof val ":" 0)) 1))) ":" 0)) 1))) ":" 0)) 1))) ":" 0)) 1)))) 0)))
(assert (not (= (+ 0 (str.indexof (str.substr (str.substr (str.substr (str.substr val (+ (+ 0 (str.indexof val ":" 0)) 1) (- (str.len val) (+ (+ 0 (str.indexof val ":" 0)) 1))) (+ (+ 0 (str.indexof (str.substr val (+ (+ 0 (str.indexof val ":" 0)) 1) (- (str.len val) (+ (+ 0 (str.indexof val ":" 0)) 1))) ":" 0)) 1) (- (str.len (str.substr val (+ (+ 0 (str.indexof val ":" 0)) 1) (- (str.len val) (+ (+ 0 (str.indexof val ":" 0)) 1)))) (+ (+ 0 (str.indexof (str.substr val (+ (+ 0 (str.indexof val ":" 0)) 1) (- (str.len val) (+ (+ 0 (str.indexof val ":" 0)) 1))) ":" 0)) 1))) (+ (+ 0 (str.indexof (str.substr (str.substr val (+ (+ 0 (str.indexof val ":" 0)) 1) (- (str.len val) (+ (+ 0 (str.indexof val ":" 0)) 1))) (+ (+ 0 (str.indexof (str.substr val (+ (+ 0 (str.indexof val ":" 0)) 1) (- (str.len val) (+ (+ 0 (str.indexof val ":" 0)) 1))) ":" 0)) 1) (- (str.len (str.substr val (+ (+ 0 (str.indexof val ":" 0)) 1) (- (str.len val) (+ (+ 0 (str.indexof val ":" 0)) 1)))) (+ (+ 0 (str.indexof (str.substr val (+ (+ 0 (str.indexof val ":" 0)) 1) (- (str.len val) (+ (+ 0 (str.indexof val ":" 0)) 1))) ":" 0)) 1))) ":" 0)) 1) (- (str.len (str.substr (str.substr val (+ (+ 0 (str.indexof val ":" 0)) 1) (- (str.len val) (+ (+ 0 (str.indexof val ":" 0)) 1))) (+ (+ 0 (str.indexof (str.substr val (+ (+ 0 (str.indexof val ":" 0)) 1) (- (str.len val) (+ (+ 0 (str.indexof val ":" 0)) 1))) ":" 0)) 1) (- (str.len (str.substr val (+ (+ 0 (str.indexof val ":" 0)) 1) (- (str.len val) (+ (+ 0 (str.indexof val ":" 0)) 1)))) (+ (+ 0 (str.indexof (str.substr val (+ (+ 0 (str.indexof val ":" 0)) 1) (- (str.len val) (+ (+ 0 (str.indexof val ":" 0)) 1))) ":" 0)) 1)))) (+ (+ 0 (str.indexof (str.substr (str.substr val (+ (+ 0 (str.indexof val ":" 0)) 1) (- (str.len val) (+ (+ 0 (str.indexof val ":" 0)) 1))) (+ (+ 0 (str.indexof (str.substr val (+ (+ 0 (str.indexof val ":" 0)) 1) (- (str.len val) (+ (+ 0 (str.indexof val ":" 0)) 1))) ":" 0)) 1) (- (str.len (str.substr val (+ (+ 0 (str.indexof val ":" 0)) 1) (- (str.len val) (+ (+ 0 (str.indexof val ":" 0)) 1)))) (+ (+ 0 (str.indexof (str.substr val (+ (+ 0 (str.indexof val ":" 0)) 1) (- (str.len val) (+ (+ 0 (str.indexof val ":" 0)) 1))) ":" 0)) 1))) ":" 0)) 1))) (+ (+ 0 (str.indexof (str.substr (str.substr (str.substr val (+ (+ 0 (str.indexof val ":" 0)) 1) (- (str.len val) (+ (+ 0 (str.indexof val ":" 0)) 1))) (+ (+ 0 (str.indexof (str.substr val (+ (+ 0 (str.indexof val ":" 0)) 1) (- (str.len val) (+ (+ 0 (str.indexof val ":" 0)) 1))) ":" 0)) 1) (- (str.len (str.substr val (+ (+ 0 (str.indexof val ":" 0)) 1) (- (str.len val) (+ (+ 0 (str.indexof val ":" 0)) 1)))) (+ (+ 0 (str.indexof (str.substr val (+ (+ 0 (str.indexof val ":" 0)) 1) (- (str.len val) (+ (+ 0 (str.indexof val ":" 0)) 1))) ":" 0)) 1))) (+ (+ 0 (str.indexof (str.substr (str.substr val (+ (+ 0 (str.indexof val ":" 0)) 1) (- (str.len val) (+ (+ 0 (str.indexof val ":" 0)) 1))) (+ (+ 0 (str.indexof (str.substr val (+ (+ 0 (str.indexof val ":" 0)) 1) (- (str.len val) (+ (+ 0 (str.indexof val ":" 0)) 1))) ":" 0)) 1) (- (str.len (str.substr val (+ (+ 0 (str.indexof val ":" 0)) 1) (- (str.len val) (+ (+ 0 (str.indexof val ":" 0)) 1)))) (+ (+ 0 (str.indexof (str.substr val (+ (+ 0 (str.indexof val ":" 0)) 1) (- (str.len val) (+ (+ 0 (str.indexof val ":" 0)) 1))) ":" 0)) 1))) ":" 0)) 1) (- (str.len (str.substr (str.substr val (+ (+ 0 (str.indexof val ":" 0)) 1) (- (str.len val) (+ (+ 0 (str.indexof val ":" 0)) 1))) (+ (+ 0 (str.indexof (str.substr val (+ (+ 0 (str.indexof val ":" 0)) 1) (- (str.len val) (+ (+ 0 (str.indexof val ":" 0)) 1))) ":" 0)) 1) (- (str.len (str.substr val (+ (+ 0 (str.indexof val ":" 0)) 1) (- (str.len val) (+ (+ 0 (str.indexof val ":" 0)) 1)))) (+ (+ 0 (str.indexof (str.substr val (+ (+ 0 (str.indexof val ":" 0)) 1) (- (str.len val) (+ (+ 0 (str.indexof val ":" 0)) 1))) ":" 0)) 1)))) (+ (+ 0 (str.indexof (str.substr (str.substr val (+ (+ 0 (str.indexof val ":" 0)) 1) (- (str.len val) (+ (+ 0 (str.indexof val ":" 0)) 1))) (+ (+ 0 (str.indexof (str.substr val (+ (+ 0 (str.indexof val ":" 0)) 1) (- (str.len val) (+ (+ 0 (str.indexof val ":" 0)) 1))) ":" 0)) 1) (- (str.len (str.substr val (+ (+ 0 (str.indexof val ":" 0)) 1) (- (str.len val) (+ (+ 0 (str.indexof val ":" 0)) 1)))) (+ (+ 0 (str.indexof (str.substr val (+ (+ 0 (str.indexof val ":" 0)) 1) (- (str.len val) (+ (+ 0 (str.indexof val ":" 0)) 1))) ":" 0)) 1))) ":" 0)) 1))) ":" 0)) 1) (- (str.len (str.substr (str.substr (str.substr val (+ (+ 0 (str.indexof val ":" 0)) 1) (- (str.len val) (+ (+ 0 (str.indexof val ":" 0)) 1))) (+ (+ 0 (str.indexof (str.substr val (+ (+ 0 (str.indexof val ":" 0)) 1) (- (str.len val) (+ (+ 0 (str.indexof val ":" 0)) 1))) ":" 0)) 1) (- (str.len (str.substr val (+ (+ 0 (str.indexof val ":" 0)) 1) (- (str.len val) (+ (+ 0 (str.indexof val ":" 0)) 1)))) (+ (+ 0 (str.indexof (str.substr val (+ (+ 0 (str.indexof val ":" 0)) 1) (- (str.len val) (+ (+ 0 (str.indexof val ":" 0)) 1))) ":" 0)) 1))) (+ (+ 0 (str.indexof (str.substr (str.substr val (+ (+ 0 (str.indexof val ":" 0)) 1) (- (str.len val) (+ (+ 0 (str.indexof val ":" 0)) 1))) (+ (+ 0 (str.indexof (str.substr val (+ (+ 0 (str.indexof val ":" 0)) 1) (- (str.len val) (+ (+ 0 (str.indexof val ":" 0)) 1))) ":" 0)) 1) (- (str.len (str.substr val (+ (+ 0 (str.indexof val ":" 0)) 1) (- (str.len val) (+ (+ 0 (str.indexof val ":" 0)) 1)))) (+ (+ 0 (str.indexof (str.substr val (+ (+ 0 (str.indexof val ":" 0)) 1) (- (str.len val) (+ (+ 0 (str.indexof val ":" 0)) 1))) ":" 0)) 1))) ":" 0)) 1) (- (str.len (str.substr (str.substr val (+ (+ 0 (str.indexof val ":" 0)) 1) (- (str.len val) (+ (+ 0 (str.indexof val ":" 0)) 1))) (+ (+ 0 (str.indexof (str.substr val (+ (+ 0 (str.indexof val ":" 0)) 1) (- (str.len val) (+ (+ 0 (str.indexof val ":" 0)) 1))) ":" 0)) 1) (- (str.len (str.substr val (+ (+ 0 (str.indexof val ":" 0)) 1) (- (str.len val) (+ (+ 0 (str.indexof val ":" 0)) 1)))) (+ (+ 0 (str.indexof (str.substr val (+ (+ 0 (str.indexof val ":" 0)) 1) (- (str.len val) (+ (+ 0 (str.indexof val ":" 0)) 1))) ":" 0)) 1)))) (+ (+ 0 (str.indexof (str.substr (str.substr val (+ (+ 0 (str.indexof val ":" 0)) 1) (- (str.len val) (+ (+ 0 (str.indexof val ":" 0)) 1))) (+ (+ 0 (str.indexof (str.substr val (+ (+ 0 (str.indexof val ":" 0)) 1) (- (str.len val) (+ (+ 0 (str.indexof val ":" 0)) 1))) ":" 0)) 1) (- (str.len (str.substr val (+ (+ 0 (str.indexof val ":" 0)) 1) (- (str.len val) (+ (+ 0 (str.indexof val ":" 0)) 1)))) (+ (+ 0 (str.indexof (str.substr val (+ (+ 0 (str.indexof val ":" 0)) 1) (- (str.len val) (+ (+ 0 (str.indexof val ":" 0)) 1))) ":" 0)) 1))) ":" 0)) 1)))) (+ (+ 0 (str.indexof (str.substr (str.substr (str.substr val (+ (+ 0 (str.indexof val ":" 0)) 1) (- (str.len val) (+ (+ 0 (str.indexof val ":" 0)) 1))) (+ (+ 0 (str.indexof (str.substr val (+ (+ 0 (str.indexof val ":" 0)) 1) (- (str.len val) (+ (+ 0 (str.indexof val ":" 0)) 1))) ":" 0)) 1) (- (str.len (str.substr val (+ (+ 0 (str.indexof val ":" 0)) 1) (- (str.len val) (+ (+ 0 (str.indexof val ":" 0)) 1)))) (+ (+ 0 (str.indexof (str.substr val (+ (+ 0 (str.indexof val ":" 0)) 1) (- (str.len val) (+ (+ 0 (str.indexof val ":" 0)) 1))) ":" 0)) 1))) (+ (+ 0 (str.indexof (str.substr (str.substr val (+ (+ 0 (str.indexof val ":" 0)) 1) (- (str.len val) (+ (+ 0 (str.indexof val ":" 0)) 1))) (+ (+ 0 (str.indexof (str.substr val (+ (+ 0 (str.indexof val ":" 0)) 1) (- (str.len val) (+ (+ 0 (str.indexof val ":" 0)) 1))) ":" 0)) 1) (- (str.len (str.substr val (+ (+ 0 (str.indexof val ":" 0)) 1) (- (str.len val) (+ (+ 0 (str.indexof val ":" 0)) 1)))) (+ (+ 0 (str.indexof (str.substr val (+ (+ 0 (str.indexof val ":" 0)) 1) (- (str.len val) (+ (+ 0 (str.indexof val ":" 0)) 1))) ":" 0)) 1))) ":" 0)) 1) (- (str.len (str.substr (str.substr val (+ (+ 0 (str.indexof val ":" 0)) 1) (- (str.len val) (+ (+ 0 (str.indexof val ":" 0)) 1))) (+ (+ 0 (str.indexof (str.substr val (+ (+ 0 (str.indexof val ":" 0)) 1) (- (str.len val) (+ (+ 0 (str.indexof val ":" 0)) 1))) ":" 0)) 1) (- (str.len (str.substr val (+ (+ 0 (str.indexof val ":" 0)) 1) (- (str.len val) (+ (+ 0 (str.indexof val ":" 0)) 1)))) (+ (+ 0 (str.indexof (str.substr val (+ (+ 0 (str.indexof val ":" 0)) 1) (- (str.len val) (+ (+ 0 (str.indexof val ":" 0)) 1))) ":" 0)) 1)))) (+ (+ 0 (str.indexof (str.substr (str.substr val (+ (+ 0 (str.indexof val ":" 0)) 1) (- (str.len val) (+ (+ 0 (str.indexof val ":" 0)) 1))) (+ (+ 0 (str.indexof (str.substr val (+ (+ 0 (str.indexof val ":" 0)) 1) (- (str.len val) (+ (+ 0 (str.indexof val ":" 0)) 1))) ":" 0)) 1) (- (str.len (str.substr val (+ (+ 0 (str.indexof val ":" 0)) 1) (- (str.len val) (+ (+ 0 (str.indexof val ":" 0)) 1)))) (+ (+ 0 (str.indexof (str.substr val (+ (+ 0 (str.indexof val ":" 0)) 1) (- (str.len val) (+ (+ 0 (str.indexof val ":" 0)) 1))) ":" 0)) 1))) ":" 0)) 1))) ":" 0)) 1))) ":" 0)) (- 1))))
(check-sat)
(get-value (val))
